351,406
542,833
751,850
746,820
858,753
999,724
909,480
681,556
617,605
681,766
803,646
628,379
584,336
681,286
871,32
1108,267
1023,295
858,59
910,91
792,64
382,-6
857,164
1055,216
789,619
339,517
586,593
644,520
681,496
778,476
744,343
801,36
912,-48
975,555
1093,705
